
Gurobi 13.0.2 (win64) logging started Thu Jul 23 06:07:54 2026

Set parameter LogFile to value "E:\codes\ExactEBRP\results\gf_cplex_equivalent_gurobi_replica_round28\runs\stage2__tight_T_seed4101__c3_replica__300s\external\native_logs\R.0_lp.gurobi.log"
Gurobi Optimizer version 13.0.2 build v13.0.2rc1 (win64 - Windows 10.0 (19045.2))

CPU model: 12th Gen Intel(R) Core(TM) i7-12700KF, instruction set [SSE2|AVX|AVX2]
Thread count: 12 physical cores, 20 logical processors, using up to 1 threads

Non-default parameters:
TimeLimit  264.9880104
MIPGap  0
MIPGapAbs  0
LogToConsole  0
Threads  1

Optimize a model with 11895 rows, 3372 columns and 67105 nonzeros (Min)
Model fingerprint: 0x0cf7a6d7
Model has 21 linear objective coefficients
Coefficient statistics:
  Matrix range     [7e-03, 2e+04]
  Objective range  [7e-03, 1e+00]
  Bounds range     [3e-01, 1e+03]
  RHS range        [3e-01, 5e+04]

Presolve removed 1579 rows and 103 columns
Presolve time: 0.04s
Presolved: 10316 rows, 3270 columns, 57960 nonzeros

Iteration    Objective       Primal Inf.    Dual Inf.      Time
       0    1.3984008e-01   4.389218e+02   0.000000e+00      0s

Extra simplex iterations after uncrush: 8
    2937    2.8535410e-01   0.000000e+00   0.000000e+00      0s

Solved in 2937 iterations and 0.18 seconds (0.49 work units)
Optimal objective  2.853541009e-01

User-callback calls 3087, time in user-callback 0.00 sec
